p cnf 21 33
1 4 7 10 13 16 19 0 
2 5 8 11 14 17 20 0 
3 6 9 12 15 18 21 0 
-1 -2 0 
-1 -3 0 
-2 -3 0 
-4 -5 0 
-4 -6 0 
-5 -6 0 
-7 -8 0 
-7 -9 0 
-8 -9 0 
-10 -11 0 
-10 -12 0 
-11 -12 0 
-13 -14 0 
-13 -15 0 
-14 -15 0 
-16 -17 0 
-16 -18 0 
-17 -18 0 
-19 -20 0 
-19 -21 0 
-20 -21 0 
-13 -16 0 
-13 -17 0 
-13 -18 0 
-14 -16 0 
-14 -17 0 
-14 -18 0 
-15 -16 0 
-15 -17 0 
-15 -18 0 
